13898
1 0 0 1 0 1 0 1 1 1 1 1 0 1 1 0 1 0 1 1 1 1 1 0 1 1 1 0 0 0
21 10 3 7 20 8 13 18 21 13 26 13 24 7 5 14 13 8 7 9 21 16 8 25 16 10 0 8 5 11 0 13 11 9 14 22 16 8 16 8 25 19 18 10 14 7 20 8 5 13 22 13 8 7 13 21 18 8 25 25 22 13 8 7 9 0 13 22 7 3 8 13 18 18 14 10 0 16 7 7 11 13 10 7 14 14 10 24 11 5 8 13 8 7 14 26 13 24 21 16 0 24 11 10 21 22 20 8 25 13 10 0 8 5 13 22 8 8 25 5 24 20 19 26 7 10 20 8 25 26 10 13 8 25 13 21 18 8 25 25 11 19 18 18 21 22 20 8 25 9